problems/csplib-prob056/sonet-models/noch/O2/lingeling/model_4_1-s3ring06-solution000001.solution
language Essence 1.3

letting network be mset({}, {}, {1, 2, 3, 7, 12}, {2, 4, 5, 6, 9}, {3, 11}, {4, 6, 8, 10, 13}, {6, 7, 9, 11, 12})
$ Here is a simple "visualisation" for the value above.
$ 
$ 
$  1  2  3  7 12
$  2  4  5  6  9
$  3 11
$  4  6  8 10 13
$  6  7  9 11 12

